NAME : LR2_6_4
TYPE : PDPTW
DIMENSION : 150
EDGE_WEIGHT_TYPE : EXACT_2D
NODE_COORD_SECTION
1 1 0
2 150 0
3 0 0
4 -16 4261
5 0 2
6 0 4646
7 3 284
8 4650 10
9 38 139
10 10 0
11 178 19
12 0 117
13 -4 0
14 0 7
15 0 4711
16 8 175
17 4709 10
18 45 115
19 10 0
20 203 5
21 0 284
22 18 0
23 554 12
24 0 4635
25 13 274
26 4623 10
27 232 121
28 10 0
29 83 -20
30 217 0
31 33 669
32 256 17
33 0 4743
34 18 61
35 4703 10
36 80 35
37 10 514
38 135 -22
39 493 0
40 -33 0
41 0 22
42 2074 2166
43 23 102
44 4760 10
45 276 28
46 10 448
47 179 19
48 0 601
49 -25 0
50 0 27
51 0 4731
52 28 61
53 4724 10
54 283 144
55 10 0
56 232 11
57 0 85
58 -3 2416
59 0 32
60 2278 2416
61 33 176
62 4698 10
63 117 168
64 10 74
65 102 -20
66 374 0
67 -2 0
68 0 37
69 0 4661
70 38 29
71 3101 10
72 136 241
73 10 353
74 42 17
75 0 104
76 42 0
77 293 42
78 0 4664
79 43 136
80 2478 10
81 230 80
82 10 0
83 172 2
84 0 36
85 -2 0
86 0 47
87 0 4663
88 48 72
89 4662 10
90 57 125
91 10 0
92 47 -25
93 157 0
94 21 0
95 385 52
96 0 4713
97 53 220
98 2614 10
99 191 234
100 10 139
101 40 22
102 0 246
103 13 0
104 300 57
105 0 4698
106 58 272
107 4677 10
108 56 116
109 10 0
110 93 -15
111 14 0
112 -32 0
113 0 62
114 2766 2865
115 63 208
116 4662 10
117 285 283
118 10 283
119 37 -41
120 13 0
121 19 0
122 486 67
123 0 4692
124 68 37
125 4700 10
126 201 175
127 10 0
128 155 11
129 0 403
130 -22 0
131 0 72
132 0 4666
133 73 279
134 4641 10
135 46 155
136 10 0
137 178 9
138 0 339
139 -23 0
140 0 77
141 2567 2761
142 78 268
143 3512 10
144 207 149
145 10 243
146 123 4
147 0 539
148 16 0
149 228 82
150 0 4725
PICKUP_AND_DELIVERY_SECTION
1 0 0 0 0 0 0
2 0 0 0 0 4823 0
3 0 0 0 0 0 133
4 0 0 0 0 10 10
5 0 0 0 0 41 41
6 0 0 0 0 342 342
7 0 0 0 0 -17 -17
8 0 0 0 0 0 0
9 0 0 0 0 0 0
10 0 0 0 0 5 5
11 0 0 0 0 3197 3197
12 0 0 0 0 241 241
13 0 0 0 0 10 10
14 0 0 0 0 221 221
15 0 0 0 0 281 281
16 0 0 0 0 8 8
17 0 0 0 0 150 0
18 0 0 0 0 0 0
19 0 0 0 0 10 10
20 0 0 0 0 4729 0
21 0 0 0 0 178 178
22 0 0 0 0 10 10
23 0 0 0 0 2 2
24 0 0 0 0 307 307
25 0 0 0 0 41 41
26 0 0 0 0 65 0
27 0 0 0 0 0 0
28 0 0 0 0 15 15
29 0 0 0 0 4735 0
30 0 0 0 0 275 275
31 0 0 0 0 10 10
32 0 0 0 0 211 211
33 0 0 0 0 0 0
34 0 0 0 0 -12 -12
35 0 0 0 0 0 0
36 0 0 0 0 2051 2051
37 0 0 0 0 20 0
38 0 0 0 0 4665 0
39 0 0 0 0 60 60
40 0 0 0 0 10 10
41 0 0 0 0 127 127
42 0 0 0 0 49 49
43 0 0 0 0 15 15
44 0 0 0 0 98 0
45 0 0 0 0 0 0
46 0 0 0 0 25 0
47 0 0 0 0 4781 0
48 0 0 0 0 289 289
49 0 0 0 0 10 10
50 0 0 0 0 134 134
51 0 0 0 0 409 409
52 0 0 0 0 -27 -27
53 0 0 0 0 0 0
54 0 0 0 0 481 481
55 0 0 0 0 30 30
56 0 0 0 0 4716 0
57 0 0 0 0 120 120
58 0 0 0 0 10 10
59 0 0 0 0 64 64
60 0 0 0 0 250 250
61 0 0 0 0 5 5
62 0 0 0 0 136 0
63 0 0 0 0 0 0
64 0 0 0 0 35 0
65 0 0 0 0 4301 4301
66 0 0 0 0 157 157
67 0 0 0 0 10 10
68 0 0 0 0 3 3
69 0 0 0 0 0 0
70 0 0 0 0 -32 -32
71 0 0 0 0 0 0
72 0 0 0 0 1532 1532
73 0 0 0 0 40 0
74 0 0 0 0 1141 1141
75 0 0 0 0 183 183
76 0 0 0 0 10 10
77 0 0 0 0 299 299
78 0 0 0 0 380 380
79 0 0 0 0 -16 -16
80 0 0 0 0 0 0
81 0 0 0 0 0 0
82 0 0 0 0 45 45
83 0 0 0 0 4791 0
84 0 0 0 0 136 136
85 0 0 0 0 10 10
86 0 0 0 0 200 200
87 0 0 0 0 140 140
88 0 0 0 0 32 32
89 0 0 0 0 38 0
90 0 0 0 0 0 0
91 0 0 0 0 50 50
92 0 0 0 0 4695 0
93 0 0 0 0 262 262
94 0 0 0 0 10 10
95 0 0 0 0 250 250
96 0 0 0 0 399 399
97 0 0 0 0 38 38
98 0 0 0 0 355 0
99 0 0 0 0 0 0
100 0 0 0 0 55 0
101 0 0 0 0 4697 0
102 0 0 0 0 227 227
103 0 0 0 0 10 10
104 0 0 0 0 141 141
105 0 0 0 0 346 346
106 0 0 0 0 8 8
107 0 0 0 0 278 0
108 0 0 0 0 934 934
109 0 0 0 0 60 60
110 0 0 0 0 2051 2051
111 0 0 0 0 120 120
112 0 0 0 0 10 10
113 0 0 0 0 119 119
114 0 0 0 0 0 0
115 0 0 0 0 16 16
116 0 0 0 0 483 0
117 0 0 0 0 2200 2200
118 0 0 0 0 65 0
119 0 0 0 0 3368 3368
120 0 0 0 0 180 180
121 0 0 0 0 10 10
122 0 0 0 0 139 139
123 0 0 0 0 0 0
124 0 0 0 0 -11 -11
125 0 0 0 0 0 0
126 0 0 0 0 0 0
127 0 0 0 0 70 70
128 0 0 0 0 4791 0
129 0 0 0 0 94 94
130 0 0 0 0 10 10
131 0 0 0 0 135 135
132 0 0 0 0 0 0
133 0 0 0 0 -11 -11
134 0 0 0 0 0 0
135 0 0 0 0 0 0
136 0 0 0 0 75 75
137 0 0 0 0 4676 0
138 0 0 0 0 15 15
139 0 0 0 0 10 10
140 0 0 0 0 146 146
141 0 0 0 0 203 203
142 0 0 0 0 -11 -11
143 0 0 0 0 0 0
144 0 0 0 0 0 0
145 0 0 0 0 80 0
146 0 0 0 0 254 254
147 0 0 0 0 103 103
148 0 0 0 0 10 10
149 0 0 0 0 235 235
150 0 0 0 0 537 537
DEPOT_SECTION
1 
-1
EOF
